11
2147483647 23 30 94 50 53 33 74 43 6 76 
23 2147483647 36 61 70 35 61 84 30 83 28 
30 36 2147483647 33 89 100 60 67 11 75 63 
94 61 33 2147483647 74 25 71 43 10 48 22 
50 70 89 74 2147483647 83 34 64 43 50 66 
53 35 100 25 83 2147483647 79 77 5 76 92 
33 61 60 71 34 79 2147483647 22 55 37 38 
74 84 67 43 64 77 22 2147483647 62 6 96 
43 30 11 10 43 5 55 62 2147483647 20 69 
6 83 75 48 50 76 37 6 20 2147483647 1 
76 28 63 22 66 92 38 96 69 1 2147483647 
